logs/miss/qp/miss-05-15-2.lp
\ LP format - for model browsing. Use MPS format to capture full model detail.
Minimize
  x0 + x1 + x2 + x3 + x4 + x5 + x6 + x7 + x8 + x9 + x10 + x11 + x12 + x13
   + x14 + x15 + x16 + x17 + x18 + x19 + x20 + x21 + x22 + x23 + x24 + x25
   + x26 + x27 + x28 + x29 + x30 + x31 + x32 + x33 + x34 + x35 + x36 + x37
   + x38 + x39 + x40 + x41 + x42 + x43 + x44 + x45 + x46 + x47 + x48 + x49
   + x50 + x51 + x52 + x53 + x54 + x55 + x56 + x57 + x58 + x59 + x60 + x61
   + x62 + x63 + x64 + x65 + x66
Subject To
 R0: x0 = 1
 qc0: [ x0 * x2 + x1 * x3 + x2 * x4 + x3 * x5 + x4 * x6 + x5 * x7 + x6 * x8
   + x7 * x9 + x8 * x10 + x9 * x11 + x10 * x12 + x11 * x13 + x12 * x14
   + x13 * x15 + x14 * x16 + x15 * x17 + x16 * x18 + x17 * x19 + x18 * x20
   + x19 * x21 + x20 * x22 + x21 * x23 + x22 * x24 + x23 * x25 + x24 * x26
   + x25 * x27 + x26 * x28 + x27 * x29 + x28 * x30 + x29 * x31 + x30 * x32
   + x31 * x33 + x32 * x34 + x33 * x35 + x34 * x36 + x35 * x37 + x36 * x38
   + x37 * x39 + x38 * x40 + x39 * x41 + x40 * x42 + x41 * x43 + x42 * x44
   + x43 * x45 + x44 * x46 + x45 * x47 + x46 * x48 + x47 * x49 + x48 * x50
   + x49 * x51 + x50 * x52 + x51 * x53 + x52 * x54 + x53 * x55 + x54 * x56
   + x55 * x57 + x56 * x58 + x57 * x59 + x58 * x60 + x59 * x61 + x60 * x62
   + x61 * x63 + x62 * x64 + x63 * x65 + x64 * x66 ] >= 1
 qc1: [ x0 * x12 + x1 * x13 + x2 * x14 + x3 * x15 + x4 * x16 + x5 * x17
   + x6 * x18 + x7 * x19 + x8 * x20 + x9 * x21 + x10 * x22 + x11 * x23
   + x12 * x24 + x13 * x25 + x14 * x26 + x15 * x27 + x16 * x28 + x17 * x29
   + x18 * x30 + x19 * x31 + x20 * x32 + x21 * x33 + x22 * x34 + x23 * x35
   + x24 * x36 + x25 * x37 + x26 * x38 + x27 * x39 + x28 * x40 + x29 * x41
   + x30 * x42 + x31 * x43 + x32 * x44 + x33 * x45 + x34 * x46 + x35 * x47
   + x36 * x48 + x37 * x49 + x38 * x50 + x39 * x51 + x40 * x52 + x41 * x53
   + x42 * x54 + x43 * x55 + x44 * x56 + x45 * x57 + x46 * x58 + x47 * x59
   + x48 * x60 + x49 * x61 + x50 * x62 + x51 * x63 + x52 * x64 + x53 * x65
   + x54 * x66 ] >= 1
 qc2: [ x0 * x14 + x1 * x15 + x2 * x16 + x3 * x17 + x4 * x18 + x5 * x19
   + x6 * x20 + x7 * x21 + x8 * x22 + x9 * x23 + x10 * x24 + x11 * x25
   + x12 * x26 + x13 * x27 + x14 * x28 + x15 * x29 + x16 * x30 + x17 * x31
   + x18 * x32 + x19 * x33 + x20 * x34 + x21 * x35 + x22 * x36 + x23 * x37
   + x24 * x38 + x25 * x39 + x26 * x40 + x27 * x41 + x28 * x42 + x29 * x43
   + x30 * x44 + x31 * x45 + x32 * x46 + x33 * x47 + x34 * x48 + x35 * x49
   + x36 * x50 + x37 * x51 + x38 * x52 + x39 * x53 + x40 * x54 + x41 * x55
   + x42 * x56 + x43 * x57 + x44 * x58 + x45 * x59 + x46 * x60 + x47 * x61
   + x48 * x62 + x49 * x63 + x50 * x64 + x51 * x65 + x52 * x66 ] >= 1
 qc3: [ x0 * x19 + x1 * x20 + x2 * x21 + x3 * x22 + x4 * x23 + x5 * x24
   + x6 * x25 + x7 * x26 + x8 * x27 + x9 * x28 + x10 * x29 + x11 * x30
   + x12 * x31 + x13 * x32 + x14 * x33 + x15 * x34 + x16 * x35 + x17 * x36
   + x18 * x37 + x19 * x38 + x20 * x39 + x21 * x40 + x22 * x41 + x23 * x42
   + x24 * x43 + x25 * x44 + x26 * x45 + x27 * x46 + x28 * x47 + x29 * x48
   + x30 * x49 + x31 * x50 + x32 * x51 + x33 * x52 + x34 * x53 + x35 * x54
   + x36 * x55 + x37 * x56 + x38 * x57 + x39 * x58 + x40 * x59 + x41 * x60
   + x42 * x61 + x43 * x62 + x44 * x63 + x45 * x64 + x46 * x65 + x47 * x66
   ] >= 2
Bounds
Binaries
 x0 x1 x2 x3 x4 x5 x6 x7 x8 x9 x10 x11 x12 x13 x14 x15 x16 x17 x18 x19 x20
 x21 x22 x23 x24 x25 x26 x27 x28 x29 x30 x31 x32 x33 x34 x35 x36 x37 x38
 x39 x40 x41 x42 x43 x44 x45 x46 x47 x48 x49 x50 x51 x52 x53 x54 x55 x56
 x57 x58 x59 x60 x61 x62 x63 x64 x65 x66
End
